benchmarks_vrp/CMT4/tsp_classic/CMT4_3.vrp
NAME: CMT4_3
TYPE: CVRP
COMMENT: 1028.42 - Cluster Nr.3
DIMENSION: 12
CAPACITY: 200
EDGE_WEIGHT_TYPE: EUC_2D
NODE_COORD_TYPE: TWOD_COORDS
NODE_COORD_SECTION: 
8 25 30
5 36 26
7 37 31
6 22 27
2 21 24
3 35 35
4 26 27
9 32 39
10 25 32
11 26 35
1 35 40
12 31 32
DEPOT_SECTION: 
3
-1
DEMAND_SECTION: 
3 0
4 27
5 18
8 3
7 14
6 11
2 28
9 5
1 16
11 15
10 25
12 29
EOF
