benchmarks_vrp/CMT4/tsp_classic/CMT4_3.tour
NAME: CMT4_3 solution
TYPE: TOUR
TOUR_SECTION:
3 1 9 11 10 8 6 2 4 12 5 7 -1
-1
EOF